other-problems-solved/DietOptimization.lp
\* Diet_Optimization *\
Minimize
OBJ: 2 Bread + 4 Eggs + 3 Milk
Subject To
Calories: 4 Bread + 2 Eggs + 3 Milk >= 10
Fat: Bread + 5 Eggs + 5 Milk <= 10
Protein: 4 Bread + 7 Eggs + 8 Milk >= 15
End
