other-problems-solved/DietOptimization.mps
*SENSE:Minimize
NAME          Diet_Optimization
ROWS
 N  OBJ
 G  Calories
 G  Protein
 L  Fat
COLUMNS
    Bread     Calories   4.000000000000e+00
    Bread     Protein    4.000000000000e+00
    Bread     Fat        1.000000000000e+00
    Bread     OBJ        2.000000000000e+00
    Eggs      Calories   2.000000000000e+00
    Eggs      Protein    7.000000000000e+00
    Eggs      Fat        5.000000000000e+00
    Eggs      OBJ        4.000000000000e+00
    Milk      Calories   3.000000000000e+00
    Milk      Protein    8.000000000000e+00
    Milk      Fat        5.000000000000e+00
    Milk      OBJ        3.000000000000e+00
RHS
    RHS       Calories   1.000000000000e+01
    RHS       Protein    1.500000000000e+01
    RHS       Fat        1.000000000000e+01
BOUNDS
ENDATA
